56760
49, 28, 6, 3, 43, 40, 51, 7, 37, 5, 35, 24, 20, 50, 38, 8, 44, 32, 41, 13, 19, 48, 17, 23, 21, 29, 46, 39, 36, 15, 52, 11, 25, 31, 1, 27, 33, 42, 45, 2, 14, 16, 10, 22, 53, 47, 4, 30, 18, 12, 9, 34, 54, 26, 55
